row=7;
column=7;
Board=[|2,4,7,5,6,3,1|7,5,3,1,4,6,2|4,7,6,3,1,2,5|1,3,2,6,5,4,7|6,1,4,7,2,5,3|3,6,5,2,7,1,4|5,2,1,4,3,7,6|];
horizontal=[|0,0,1,0,-1,1|1,1,1,0,0,1|0,1,1,-1,0,0|0,1,0,1,1,0|1,0,0,1,0,1|0,1,1,0,1,0|1,1,0,1,0,1|];
vertical=[|0,0,1,1,-1,0,0|-1,0,0,0,1,1,0|1,1,1,0,0,0,0|0,1,0,0,1,-1,1|1,0,0,1,0,-1,0|0,1,1,0,1,0,0|];
